\ENCODING=ISO-8859-1
\Problem name: 

Maximize
 obj: 0.1 w_1s1 + 0.1 w_1s2 + 0.05 w_1s3 + 0.1 w_3s1 + 0.1 w_3s2 + 0.05 w_3s3
      + 0.1 w_2s1 + 0.1 w_2s2 + 0.05 w_2s3
Subject To
 c1:   w_1s1 <= 10
 c2:   g_1s1 - w_1s1 - f_1_2s1 - f_1_Gs1  = 0
 c3:   theta_1s1 - theta_2s1 - f_1_2s1 - 1000 F_1_2s1 + 1000 X_1_2 <= 1000
 c4:   theta_1s1 - theta_2s1 - f_1_2s1 + 1000 F_1_2s1 - 1000 X_1_2 >= -1000
 c5:   f_1_2s1 - 1000 X_1_2 <= 0
 c6:   f_1_2s1 + 1000 X_1_2 >= 0
 c7:   f_1_2s1 + 1000 F_1_2s1 <= 1000
 c8:   f_1_2s1 - 1000 F_1_2s1 >= -1000
 c9:   F_1_Gs1  = 1
 c10:  theta_1s1 - theta_Gs1 - f_1_Gs1 - 1000 F_1_Gs1 <= 0
 c11:  theta_1s1 - theta_Gs1 - f_1_Gs1 + 1000 F_1_Gs1 >= 0
 c12:  f_1_Gs1 + 1000 F_1_Gs1 <= 1000
 c13:  f_1_Gs1 - 1000 F_1_Gs1 >= -1000
 c14:  g_1s1 - c_1 <= 0
 c15:  g_1s1 - 1000 Z_1 <= 0
 c16:  w_1s2 <= 10
 c17:  g_1s2 - w_1s2 - f_1_2s2 - f_1_Gs2  = 0
 c18:  theta_1s2 - theta_2s2 - f_1_2s2 - 1000 F_1_2s2 + 1000 X_1_2 <= 1000
 c19:  theta_1s2 - theta_2s2 - f_1_2s2 + 1000 F_1_2s2 - 1000 X_1_2 >= -1000
 c20:  f_1_2s2 - 1000 X_1_2 <= 0
 c21:  f_1_2s2 + 1000 X_1_2 >= 0
 c22:  f_1_2s2 + 1000 F_1_2s2 <= 1000
 c23:  f_1_2s2 - 1000 F_1_2s2 >= -1000
 c24:  theta_1s2 - theta_Gs2 - f_1_Gs2 - 1000 F_1_Gs2 <= 0
 c25:  theta_1s2 - theta_Gs2 - f_1_Gs2 + 1000 F_1_Gs2 >= 0
 c26:  f_1_Gs2 + 1000 F_1_Gs2 <= 1000
 c27:  f_1_Gs2 - 1000 F_1_Gs2 >= -1000
 c28:  g_1s2 - c_1 <= 0
 c29:  g_1s2 - 1000 Z_1 <= 0
 c30:  w_1s3 <= 10
 c31:  g_1s3 - w_1s3 - f_1_2s3 - f_1_Gs3  = 0
 c32:  theta_1s3 - theta_2s3 - f_1_2s3 - 1000 F_1_2s3 + 1000 X_1_2 <= 1000
 c33:  theta_1s3 - theta_2s3 - f_1_2s3 + 1000 F_1_2s3 - 1000 X_1_2 >= -1000
 c34:  f_1_2s3 - 1000 X_1_2 <= 0
 c35:  f_1_2s3 + 1000 X_1_2 >= 0
 c36:  f_1_2s3 + 1000 F_1_2s3 <= 1000
 c37:  f_1_2s3 - 1000 F_1_2s3 >= -1000
 c38:  theta_1s3 - theta_Gs3 - f_1_Gs3 - 1000 F_1_Gs3 <= 0
 c39:  theta_1s3 - theta_Gs3 - f_1_Gs3 + 1000 F_1_Gs3 >= 0
 c40:  f_1_Gs3 + 1000 F_1_Gs3 <= 1000
 c41:  f_1_Gs3 - 1000 F_1_Gs3 >= -1000
 c42:  g_1s3 - c_1 <= 0
 c43:  g_1s3 - 1000 Z_1 <= 0
 c44:  g_Gs1 + f_3_Gs1 + f_2_Gs1 + f_1_Gs1  = 0
 c45:  g_Gs1 - c_G <= 30
 c46:  g_Gs1 - 1000 Z_G <= 0
 c47:  g_Gs2 + f_3_Gs2 + f_2_Gs2 + f_1_Gs2  = 0
 c48:  g_Gs2 - c_G <= 30
 c49:  g_Gs2 - 1000 Z_G <= 0
 c50:  g_Gs3 + f_3_Gs3 + f_2_Gs3 + f_1_Gs3  = 0
 c51:  g_Gs3 - c_G <= 30
 c52:  g_Gs3 - 1000 Z_G <= 0
 c53:  w_3s1 <= 10
 c54:  g_3s1 - w_3s1 - f_3_Gs1 + f_2_3s1  = 0
 c55:  - theta_Gs1 + theta_3s1 - f_3_Gs1 - 1000 F_3_Gs1 <= 0
 c56:  - theta_Gs1 + theta_3s1 - f_3_Gs1 + 1000 F_3_Gs1 >= 0
 c57:  f_3_Gs1 + 1000 F_3_Gs1 <= 1000
 c58:  f_3_Gs1 - 1000 F_3_Gs1 >= -1000
 c59:  g_3s1 - c_3 <= 0
 c60:  g_3s1 - 1000 Z_3 <= 0
 c61:  w_3s2 <= 10
 c62:  g_3s2 - w_3s2 - f_3_Gs2 + f_2_3s2  = 0
 c63:  - theta_Gs2 + theta_3s2 - f_3_Gs2 - 1000 F_3_Gs2 <= 0
 c64:  - theta_Gs2 + theta_3s2 - f_3_Gs2 + 1000 F_3_Gs2 >= 0
 c65:  f_3_Gs2 + 1000 F_3_Gs2 <= 1000
 c66:  f_3_Gs2 - 1000 F_3_Gs2 >= -1000
 c67:  g_3s2 - c_3 <= 0
 c68:  g_3s2 - 1000 Z_3 <= 0
 c69:  w_3s3 <= 10
 c70:  g_3s3 - w_3s3 - f_3_Gs3 + f_2_3s3  = 0
 c71:  F_3_Gs3  = 1
 c72:  - theta_Gs3 + theta_3s3 - f_3_Gs3 - 1000 F_3_Gs3 <= 0
 c73:  - theta_Gs3 + theta_3s3 - f_3_Gs3 + 1000 F_3_Gs3 >= 0
 c74:  f_3_Gs3 + 1000 F_3_Gs3 <= 1000
 c75:  f_3_Gs3 - 1000 F_3_Gs3 >= -1000
 c76:  g_3s3 - c_3 <= 0
 c77:  g_3s3 - 1000 Z_3 <= 0
 c78:  w_2s1 <= 10
 c79:  g_2s1 - w_2s1 + f_1_2s1 - f_2_Gs1 - f_2_3s1  = 0
 c80:  - theta_Gs1 + theta_2s1 - f_2_Gs1 - 1000 F_2_Gs1 <= 0
 c81:  - theta_Gs1 + theta_2s1 - f_2_Gs1 + 1000 F_2_Gs1 >= 0
 c82:  f_2_Gs1 + 1000 F_2_Gs1 <= 1000
 c83:  f_2_Gs1 - 1000 F_2_Gs1 >= -1000
 c84:  - theta_3s1 + theta_2s1 - f_2_3s1 - 1000 F_2_3s1 + 1000 X_2_3 <= 1000
 c85:  - theta_3s1 + theta_2s1 - f_2_3s1 + 1000 F_2_3s1 - 1000 X_2_3 >= -1000
 c86:  f_2_3s1 - 1000 X_2_3 <= 0
 c87:  f_2_3s1 + 1000 X_2_3 >= 0
 c88:  f_2_3s1 + 1000 F_2_3s1 <= 1000
 c89:  f_2_3s1 - 1000 F_2_3s1 >= -1000
 c90:  g_2s1 - c_2 <= 0
 c91:  g_2s1 - 1000 Z_2 <= 0
 c92:  w_2s2 <= 10
 c93:  g_2s2 - w_2s2 + f_1_2s2 - f_2_Gs2 - f_2_3s2  = 0
 c94:  F_2_Gs2  = 1
 c95:  - theta_Gs2 + theta_2s2 - f_2_Gs2 - 1000 F_2_Gs2 <= 0
 c96:  - theta_Gs2 + theta_2s2 - f_2_Gs2 + 1000 F_2_Gs2 >= 0
 c97:  f_2_Gs2 + 1000 F_2_Gs2 <= 1000
 c98:  f_2_Gs2 - 1000 F_2_Gs2 >= -1000
 c99:  - theta_3s2 + theta_2s2 - f_2_3s2 - 1000 F_2_3s2 + 1000 X_2_3 <= 1000
 c100: - theta_3s2 + theta_2s2 - f_2_3s2 + 1000 F_2_3s2 - 1000 X_2_3 >= -1000
 c101: f_2_3s2 - 1000 X_2_3 <= 0
 c102: f_2_3s2 + 1000 X_2_3 >= 0
 c103: f_2_3s2 + 1000 F_2_3s2 <= 1000
 c104: f_2_3s2 - 1000 F_2_3s2 >= -1000
 c105: g_2s2 - c_2 <= 0
 c106: g_2s2 - 1000 Z_2 <= 0
 c107: w_2s3 <= 10
 c108: g_2s3 - w_2s3 + f_1_2s3 - f_2_Gs3 - f_2_3s3  = 0
 c109: F_2_Gs3  = 1
 c110: - theta_Gs3 + theta_2s3 - f_2_Gs3 - 1000 F_2_Gs3 <= 0
 c111: - theta_Gs3 + theta_2s3 - f_2_Gs3 + 1000 F_2_Gs3 >= 0
 c112: f_2_Gs3 + 1000 F_2_Gs3 <= 1000
 c113: f_2_Gs3 - 1000 F_2_Gs3 >= -1000
 c114: - theta_3s3 + theta_2s3 - f_2_3s3 - 1000 F_2_3s3 + 1000 X_2_3 <= 1000
 c115: - theta_3s3 + theta_2s3 - f_2_3s3 + 1000 F_2_3s3 - 1000 X_2_3 >= -1000
 c116: f_2_3s3 - 1000 X_2_3 <= 0
 c117: f_2_3s3 + 1000 X_2_3 >= 0
 c118: f_2_3s3 + 1000 F_2_3s3 <= 1000
 c119: f_2_3s3 - 1000 F_2_3s3 >= -1000
 c120: g_2s3 - c_2 <= 0
 c121: g_2s3 - 1000 Z_2 <= 0
 c122: c_1_2 + 5 X_1_2 + c_3_G + c_2_G + c_2_3 + 5 X_2_3 + c_1_G <= 50
Bounds
      g_1s1 = 0
 0 <= w_1s1 <= 10
 0 <= theta_1s1 <= 360
      g_1s2 = 0
 0 <= w_1s2 <= 10
 0 <= theta_1s2 <= 360
      g_1s3 = 0
 0 <= w_1s3 <= 10
 0 <= theta_1s3 <= 360
      c_1 = 0
 0 <= Z_1 <= 1
 0 <= g_Gs1 <= 30
 0 <= theta_Gs1 <= 360
 0 <= g_Gs2 <= 30
 0 <= theta_Gs2 <= 360
 0 <= g_Gs3 <= 30
 0 <= theta_Gs3 <= 360
      c_G = 0
 0 <= Z_G <= 1
      g_3s1 = 0
 0 <= w_3s1 <= 10
 0 <= theta_3s1 <= 360
      g_3s2 = 0
 0 <= w_3s2 <= 10
 0 <= theta_3s2 <= 360
      g_3s3 = 0
 0 <= w_3s3 <= 10
 0 <= theta_3s3 <= 360
      c_3 = 0
 0 <= Z_3 <= 1
      g_2s1 = 0
 0 <= w_2s1 <= 10
 0 <= theta_2s1 <= 360
      g_2s2 = 0
 0 <= w_2s2 <= 10
 0 <= theta_2s2 <= 360
      g_2s3 = 0
 0 <= w_2s3 <= 10
 0 <= theta_2s3 <= 360
      c_2 = 0
 0 <= Z_2 <= 1
-30 <= f_1_2s1 <= 30
 0 <= F_1_2s1 <= 1
-30 <= f_1_2s2 <= 30
 0 <= F_1_2s2 <= 1
-30 <= f_1_2s3 <= 30
 0 <= F_1_2s3 <= 1
 0 <= c_1_2 <= 30
 0 <= X_1_2 <= 1
-30 <= f_3_Gs1 <= 30
 0 <= F_3_Gs1 <= 1
-30 <= f_3_Gs2 <= 30
 0 <= F_3_Gs2 <= 1
-30 <= f_3_Gs3 <= 30
 0 <= F_3_Gs3 <= 1
 0 <= c_3_G <= 30
-30 <= f_2_Gs1 <= 30
 0 <= F_2_Gs1 <= 1
-30 <= f_2_Gs2 <= 30
 0 <= F_2_Gs2 <= 1
-30 <= f_2_Gs3 <= 30
 0 <= F_2_Gs3 <= 1
 0 <= c_2_G <= 30
-30 <= f_2_3s1 <= 30
 0 <= F_2_3s1 <= 1
-30 <= f_2_3s2 <= 30
 0 <= F_2_3s2 <= 1
-30 <= f_2_3s3 <= 30
 0 <= F_2_3s3 <= 1
 0 <= c_2_3 <= 30
 0 <= X_2_3 <= 1
-30 <= f_1_Gs1 <= 30
 0 <= F_1_Gs1 <= 1
-30 <= f_1_Gs2 <= 30
 0 <= F_1_Gs2 <= 1
-30 <= f_1_Gs3 <= 30
 0 <= F_1_Gs3 <= 1
 0 <= c_1_G <= 30
Binaries
 Z_1  Z_G  Z_3  Z_2  F_1_2s1  F_1_2s2  F_1_2s3  X_1_2  F_3_Gs1  F_3_Gs2 
 F_3_Gs3  F_2_Gs1  F_2_Gs2  F_2_Gs3  F_2_3s1  F_2_3s2  F_2_3s3  X_2_3  F_1_Gs1 
 F_1_Gs2  F_1_Gs3 
End
